c *********************************
c * Circuit generated by BenCGen
c *
c * CarryLookaheadBlock_21_21_21_InOutT
c *
c * Ports with 1 gate(s): 2
c * Ports with 2 gate(s): 91
c * Ports with 3 gate(s): 20
c * Ports with 4 gate(s): 15
c * Ports with 5 gate(s): 10
c * Total gates: 138
c *********************************
p cnf 180 534
1 66 0
-1 -66 0
1 -65 0
66 -65 0
-1 -66 65 0
1 22 -67 0
-1 22 67 0
1 -22 67 0
-1 -22 -67 0
1 -88 0
22 -88 0
-1 -22 88 0
2 23 -68 0
-2 23 68 0
2 -23 68 0
-2 -23 -68 0
2 -89 0
23 -89 0
-2 -23 89 0
3 24 -69 0
-3 24 69 0
3 -24 69 0
-3 -24 -69 0
3 -90 0
24 -90 0
-3 -24 90 0
4 25 -70 0
-4 25 70 0
4 -25 70 0
-4 -25 -70 0
4 -91 0
25 -91 0
-4 -25 91 0
5 26 -71 0
-5 26 71 0
5 -26 71 0
-5 -26 -71 0
5 -92 0
26 -92 0
-5 -26 92 0
6 27 -72 0
-6 27 72 0
6 -27 72 0
-6 -27 -72 0
6 -93 0
27 -93 0
-6 -27 93 0
7 28 -73 0
-7 28 73 0
7 -28 73 0
-7 -28 -73 0
7 -94 0
28 -94 0
-7 -28 94 0
8 29 -74 0
-8 29 74 0
8 -29 74 0
-8 -29 -74 0
8 -95 0
29 -95 0
-8 -29 95 0
9 30 -75 0
-9 30 75 0
9 -30 75 0
-9 -30 -75 0
9 -96 0
30 -96 0
-9 -30 96 0
10 31 -76 0
-10 31 76 0
10 -31 76 0
-10 -31 -76 0
10 -97 0
31 -97 0
-10 -31 97 0
11 32 -77 0
-11 32 77 0
11 -32 77 0
-11 -32 -77 0
11 -98 0
32 -98 0
-11 -32 98 0
12 33 -78 0
-12 33 78 0
12 -33 78 0
-12 -33 -78 0
12 -99 0
33 -99 0
-12 -33 99 0
13 34 -79 0
-13 34 79 0
13 -34 79 0
-13 -34 -79 0
13 -100 0
34 -100 0
-13 -34 100 0
14 35 -80 0
-14 35 80 0
14 -35 80 0
-14 -35 -80 0
14 -101 0
35 -101 0
-14 -35 101 0
15 36 -81 0
-15 36 81 0
15 -36 81 0
-15 -36 -81 0
15 -102 0
36 -102 0
-15 -36 102 0
16 37 -82 0
-16 37 82 0
16 -37 82 0
-16 -37 -82 0
16 -103 0
37 -103 0
-16 -37 103 0
17 38 -83 0
-17 38 83 0
17 -38 83 0
-17 -38 -83 0
17 -104 0
38 -104 0
-17 -38 104 0
18 39 -84 0
-18 39 84 0
18 -39 84 0
-18 -39 -84 0
18 -105 0
39 -105 0
-18 -39 105 0
19 40 -85 0
-19 40 85 0
19 -40 85 0
-19 -40 -85 0
19 -106 0
40 -106 0
-19 -40 106 0
20 41 -86 0
-20 41 86 0
20 -41 86 0
-20 -41 -86 0
20 -107 0
41 -107 0
-20 -41 107 0
21 42 -87 0
-21 42 87 0
21 -42 87 0
-21 -42 -87 0
21 -108 0
42 -108 0
-21 -42 108 0
65 -130 0
67 -130 0
-65 -67 130 0
65 -131 0
67 -131 0
68 -131 0
-65 -67 -68 131 0
88 -132 0
68 -132 0
-88 -68 132 0
65 -133 0
67 -133 0
68 -133 0
69 -133 0
-65 -67 -68 -69 133 0
88 -134 0
68 -134 0
69 -134 0
-88 -68 -69 134 0
89 -135 0
69 -135 0
-89 -69 135 0
65 -136 0
67 -136 0
68 -136 0
69 -136 0
70 -136 0
-65 -67 -68 -69 -70 136 0
88 -137 0
68 -137 0
69 -137 0
70 -137 0
-88 -68 -69 -70 137 0
89 -138 0
69 -138 0
70 -138 0
-89 -69 -70 138 0
90 -139 0
70 -139 0
-90 -70 139 0
-88 109 0
-130 109 0
88 130 -109 0
-89 110 0
-131 110 0
-132 110 0
89 131 132 -110 0
-90 111 0
-133 111 0
-134 111 0
-135 111 0
90 133 134 135 -111 0
-91 112 0
-136 112 0
-137 112 0
-138 112 0
-139 112 0
91 136 137 138 139 -112 0
112 -140 0
71 -140 0
-112 -71 140 0
112 -141 0
71 -141 0
72 -141 0
-112 -71 -72 141 0
92 -142 0
72 -142 0
-92 -72 142 0
112 -143 0
71 -143 0
72 -143 0
73 -143 0
-112 -71 -72 -73 143 0
92 -144 0
72 -144 0
73 -144 0
-92 -72 -73 144 0
93 -145 0
73 -145 0
-93 -73 145 0
112 -146 0
71 -146 0
72 -146 0
73 -146 0
74 -146 0
-112 -71 -72 -73 -74 146 0
92 -147 0
72 -147 0
73 -147 0
74 -147 0
-92 -72 -73 -74 147 0
93 -148 0
73 -148 0
74 -148 0
-93 -73 -74 148 0
94 -149 0
74 -149 0
-94 -74 149 0
-92 113 0
-140 113 0
92 140 -113 0
-93 114 0
-141 114 0
-142 114 0
93 141 142 -114 0
-94 115 0
-143 115 0
-144 115 0
-145 115 0
94 143 144 145 -115 0
-95 116 0
-146 116 0
-147 116 0
-148 116 0
-149 116 0
95 146 147 148 149 -116 0
116 -150 0
75 -150 0
-116 -75 150 0
116 -151 0
75 -151 0
76 -151 0
-116 -75 -76 151 0
96 -152 0
76 -152 0
-96 -76 152 0
116 -153 0
75 -153 0
76 -153 0
77 -153 0
-116 -75 -76 -77 153 0
96 -154 0
76 -154 0
77 -154 0
-96 -76 -77 154 0
97 -155 0
77 -155 0
-97 -77 155 0
116 -156 0
75 -156 0
76 -156 0
77 -156 0
78 -156 0
-116 -75 -76 -77 -78 156 0
96 -157 0
76 -157 0
77 -157 0
78 -157 0
-96 -76 -77 -78 157 0
97 -158 0
77 -158 0
78 -158 0
-97 -77 -78 158 0
98 -159 0
78 -159 0
-98 -78 159 0
-96 117 0
-150 117 0
96 150 -117 0
-97 118 0
-151 118 0
-152 118 0
97 151 152 -118 0
-98 119 0
-153 119 0
-154 119 0
-155 119 0
98 153 154 155 -119 0
-99 120 0
-156 120 0
-157 120 0
-158 120 0
-159 120 0
99 156 157 158 159 -120 0
120 -160 0
79 -160 0
-120 -79 160 0
120 -161 0
79 -161 0
80 -161 0
-120 -79 -80 161 0
100 -162 0
80 -162 0
-100 -80 162 0
120 -163 0
79 -163 0
80 -163 0
81 -163 0
-120 -79 -80 -81 163 0
100 -164 0
80 -164 0
81 -164 0
-100 -80 -81 164 0
101 -165 0
81 -165 0
-101 -81 165 0
120 -166 0
79 -166 0
80 -166 0
81 -166 0
82 -166 0
-120 -79 -80 -81 -82 166 0
100 -167 0
80 -167 0
81 -167 0
82 -167 0
-100 -80 -81 -82 167 0
101 -168 0
81 -168 0
82 -168 0
-101 -81 -82 168 0
102 -169 0
82 -169 0
-102 -82 169 0
-100 121 0
-160 121 0
100 160 -121 0
-101 122 0
-161 122 0
-162 122 0
101 161 162 -122 0
-102 123 0
-163 123 0
-164 123 0
-165 123 0
102 163 164 165 -123 0
-103 124 0
-166 124 0
-167 124 0
-168 124 0
-169 124 0
103 166 167 168 169 -124 0
124 -170 0
83 -170 0
-124 -83 170 0
124 -171 0
83 -171 0
84 -171 0
-124 -83 -84 171 0
104 -172 0
84 -172 0
-104 -84 172 0
124 -173 0
83 -173 0
84 -173 0
85 -173 0
-124 -83 -84 -85 173 0
104 -174 0
84 -174 0
85 -174 0
-104 -84 -85 174 0
105 -175 0
85 -175 0
-105 -85 175 0
124 -176 0
83 -176 0
84 -176 0
85 -176 0
86 -176 0
-124 -83 -84 -85 -86 176 0
104 -177 0
84 -177 0
85 -177 0
86 -177 0
-104 -84 -85 -86 177 0
105 -178 0
85 -178 0
86 -178 0
-105 -85 -86 178 0
106 -179 0
86 -179 0
-106 -86 179 0
-104 125 0
-170 125 0
104 170 -125 0
-105 126 0
-171 126 0
-172 126 0
105 171 172 -126 0
-106 127 0
-173 127 0
-174 127 0
-175 127 0
106 173 174 175 -127 0
-107 128 0
-176 128 0
-177 128 0
-178 128 0
-179 128 0
107 176 177 178 179 -128 0
128 -180 0
87 -180 0
-128 -87 180 0
-108 129 0
-180 129 0
108 180 -129 0
67 65 -43 0
-67 65 43 0
67 -65 43 0
-67 -65 -43 0
68 109 -44 0
-68 109 44 0
68 -109 44 0
-68 -109 -44 0
69 110 -45 0
-69 110 45 0
69 -110 45 0
-69 -110 -45 0
70 111 -46 0
-70 111 46 0
70 -111 46 0
-70 -111 -46 0
71 112 -47 0
-71 112 47 0
71 -112 47 0
-71 -112 -47 0
72 113 -48 0
-72 113 48 0
72 -113 48 0
-72 -113 -48 0
73 114 -49 0
-73 114 49 0
73 -114 49 0
-73 -114 -49 0
74 115 -50 0
-74 115 50 0
74 -115 50 0
-74 -115 -50 0
75 116 -51 0
-75 116 51 0
75 -116 51 0
-75 -116 -51 0
76 117 -52 0
-76 117 52 0
76 -117 52 0
-76 -117 -52 0
77 118 -53 0
-77 118 53 0
77 -118 53 0
-77 -118 -53 0
78 119 -54 0
-78 119 54 0
78 -119 54 0
-78 -119 -54 0
79 120 -55 0
-79 120 55 0
79 -120 55 0
-79 -120 -55 0
80 121 -56 0
-80 121 56 0
80 -121 56 0
-80 -121 -56 0
81 122 -57 0
-81 122 57 0
81 -122 57 0
-81 -122 -57 0
82 123 -58 0
-82 123 58 0
82 -123 58 0
-82 -123 -58 0
83 124 -59 0
-83 124 59 0
83 -124 59 0
-83 -124 -59 0
84 125 -60 0
-84 125 60 0
84 -125 60 0
-84 -125 -60 0
85 126 -61 0
-85 126 61 0
85 -126 61 0
-85 -126 -61 0
86 127 -62 0
-86 127 62 0
86 -127 62 0
-86 -127 -62 0
87 128 -63 0
-87 128 63 0
87 -128 63 0
-87 -128 -63 0
129 -64 0
-129 64 0
